language Essence 1.3

letting blksize_delta be
        function(1 --> 2, 2 --> 1, 3 --> 1, 4 --> 1, 5 --> 1, 6 --> 2, 7 --> 1, 8 --> 2, 9 --> 1, 10 --> 1, 11 --> 2,
                 12 --> 1, 13 --> 2, 14 --> 1, 15 --> 2, 16 --> 2, 17 --> 2, 18 --> 2, 19 --> 1, 20 --> 2, 21 --> 2,
                 22 --> 1, 23 --> 1, 24 --> 2, 25 --> 2, 26 --> 2, 27 --> 2, 28 --> 1, 29 --> 1, 30 --> 2, 31 --> 1,
                 32 --> 2, 33 --> 1, 34 --> 1, 35 --> 2, 36 --> 1, 37 --> 2, 38 --> 2, 39 --> 1, 40 --> 1, 41 --> 1,
                 42 --> 1, 43 --> 2, 44 --> 1, 45 --> 2, 46 --> 2, 47 --> 1, 48 --> 2, 49 --> 2, 50 --> 1, 51 --> 1,
                 52 --> 1, 53 --> 2, 54 --> 2, 55 --> 1, 56 --> 1, 57 --> 1, 58 --> 1, 59 --> 1, 60 --> 1, 61 --> 2,
                 62 --> 2, 63 --> 2, 64 --> 2, 65 --> 1, 66 --> 1, 67 --> 2, 68 --> 1, 69 --> 1, 70 --> 1)
letting maxcars be
        function(1 --> 3, 2 --> 4, 3 --> 3, 4 --> 6, 5 --> 8, 6 --> 4, 7 --> 7, 8 --> 3, 9 --> 5, 10 --> 7, 11 --> 3,
                 12 --> 4, 13 --> 4, 14 --> 7, 15 --> 5, 16 --> 7, 17 --> 6, 18 --> 8, 19 --> 8, 20 --> 4, 21 --> 5,
                 22 --> 4, 23 --> 8, 24 --> 8, 25 --> 8, 26 --> 6, 27 --> 5, 28 --> 7, 29 --> 3, 30 --> 4, 31 --> 7,
                 32 --> 4, 33 --> 7, 34 --> 4, 35 --> 7, 36 --> 8, 37 --> 8, 38 --> 7, 39 --> 5, 40 --> 7, 41 --> 3,
                 42 --> 6, 43 --> 3, 44 --> 3, 45 --> 6, 46 --> 5, 47 --> 6, 48 --> 3, 49 --> 3, 50 --> 6, 51 --> 6,
                 52 --> 7, 53 --> 7, 54 --> 6, 55 --> 3, 56 --> 6, 57 --> 5, 58 --> 5, 59 --> 8, 60 --> 8, 61 --> 8,
                 62 --> 4, 63 --> 4, 64 --> 4, 65 --> 4, 66 --> 5, 67 --> 4, 68 --> 6, 69 --> 3, 70 --> 5)
letting n_cars be 70
letting n_classes be 3
letting n_options be 70
letting quantity be function(1 --> 24, 2 --> 23, 3 --> 23)
letting usage be
        relation((1, 1), (1, 5), (1, 6), (1, 10), (1, 13), (1, 15), (1, 17), (1, 19), (1, 20), (1, 22), (1, 23),
                 (1, 25), (1, 26), (1, 29), (1, 31), (1, 33), (1, 36), (1, 37), (1, 38), (1, 40), (1, 45), (1, 49),
                 (1, 50), (1, 52), (1, 55), (1, 57), (1, 58), (1, 59), (1, 63), (1, 68), (1, 69), (1, 70), (2, 1),
                 (2, 2), (2, 3), (2, 5), (2, 6), (2, 11), (2, 12), (2, 13), (2, 15), (2, 16), (2, 17), (2, 18), (2, 19),
                 (2, 20), (2, 21), (2, 22), (2, 26), (2, 30), (2, 34), (2, 39), (2, 42), (2, 46), (2, 48), (2, 51),
                 (2, 55), (2, 58), (2, 62), (2, 70), (3, 2), (3, 3), (3, 4), (3, 5), (3, 7), (3, 8), (3, 9), (3, 10),
                 (3, 12), (3, 13), (3, 14), (3, 16), (3, 17), (3, 18), (3, 19), (3, 20), (3, 22), (3, 23), (3, 24),
                 (3, 27), (3, 28), (3, 29), (3, 30), (3, 32), (3, 33), (3, 34), (3, 35), (3, 36), (3, 37), (3, 38),
                 (3, 39), (3, 41), (3, 43), (3, 44), (3, 47), (3, 48), (3, 52), (3, 53), (3, 54), (3, 56), (3, 57),
                 (3, 59), (3, 60), (3, 61), (3, 62), (3, 64), (3, 65), (3, 66), (3, 67), (3, 69))
$ Visualisation for usage
$  1  1
$  1  5
$  1  6
$  1 10
$  1 13
$  1 15
$  1 17
$  1 19
$  1 20
$  1 22
$  1 23
$  1 25
$  1 26
$  1 29
$  1 31
$  1 33
$  1 36
$  1 37
$  1 38
$  1 40
$  1 45
$  1 49
$  1 50
$  1 52
$  1 55
$  1 57
$  1 58
$  1 59
$  1 63
$  1 68
$  1 69
$  1 70
$  2  1
$  2  2
$  2  3
$  2  5
$  2  6
$  2 11
$  2 12
$  2 13
$  2 15
$  2 16
$  2 17
$  2 18
$  2 19
$  2 20
$  2 21
$  2 22
$  2 26
$  2 30
$  2 34
$  2 39
$  2 42
$  2 46
$  2 48
$  2 51
$  2 55
$  2 58
$  2 62
$  2 70
$  3  2
$  3  3
$  3  4
$  3  5
$  3  7
$  3  8
$  3  9
$  3 10
$  3 12
$  3 13
$  3 14
$  3 16
$  3 17
$  3 18
$  3 19
$  3 20
$  3 22
$  3 23
$  3 24
$  3 27
$  3 28
$  3 29
$  3 30
$  3 32
$  3 33
$  3 34
$  3 35
$  3 36
$  3 37
$  3 38
$  3 39
$  3 41
$  3 43
$  3 44
$  3 47
$  3 48
$  3 52
$  3 53
$  3 54
$  3 56
$  3 57
$  3 59
$  3 60
$  3 61
$  3 62
$  3 64
$  3 65
$  3 66
$  3 67
$  3 69

